39 8268
18 6439
88 7331
18 6475
62 9104
82 8738
29 5937
50 2365
40 6993
97 4976
84 9311
42 9465
76 7585
74 1667
94 5520
95 1284
49 5670
12 6626
88 5041
92 6343
18 3416
23 6619
19 9452
42 1666
21 1142
33 6110
89 6883
31 9993
30 1563
13 7380
37 9776
44 7559
26 6834
48 9284
98 3608
45 7310
56 6044
62 3633
44 6555
10 1850
33 8799
92 2682
32 8367
23 9597
29 8538
71 3428
30 8219
56 1439
87 6102
61 2620
56 6337
68 6996
96 5016
97 9938
73 2934
53 2836
11 5399
78 8376
39 1406
58 7232
34 8214
65 6433
96 3768
98 4890
93 3595
93 8366
11 4067
72 7813
99 4055
22 2043
88 8351
48 6310
93 2391
47 5347
74 6051
56 9307
77 2506
23 2698
13 7832
62 6697
55 3469
95 6273
100 5020
52 8436
100 4829
63 4342
65 7769
68 3268
79 5141
62 8750
